problems/csplib-prob015/SchursLemma-models/noch/O2/lingeling/model_1_4-4-11-solution000001.solution
language Essence 1.3

letting boxes be partition({1, 7}, {2, 8, 9}, {3, 6}, {4, 5, 10, 11})
